Route #1: 1 2 10 18 30 31 45 44 57 63 51 64 69 70 75 76 88 87 81 80 79 93 98 99 94 100 89 82 90 77 66 71 65 54 53 39 47 52 46 32 19 11 3 12 20 21 13 4 14 22 25 33 40 48 58 67 59 60 55 49 43 35 42 41 34 26 15 5 6 16 23 27 36 28 24 8 9 7 17 29 38 37 50 56 61 73 62 74 86 92 97 96 85 78 68 72 84 83 91 95
Cost 46163
